Minimize
  u0_1_ + u0_2_ + u0_3_ + u0_4_ + u0_5_ + u0_6_ + u0_7_ + u0_8_ + u0_9_
   + u1_1_ + u1_2_ + u1_3_ + u1_4_ + u1_5_ + u1_6_ + u1_7_ + u1_8_ + u1_9_
   + u2_1_ + u2_2_ + u2_3_ + u2_4_ + u2_5_ + u2_6_ + u2_7_ + u2_8_ + u2_9_
   + u3_1_ + u3_2_ + u3_3_ + u3_4_ + u3_5_ + u3_6_ + u3_7_ + u3_8_ + u3_9_
   + u4_1_ + u4_2_ + u4_3_ + u4_4_ + u4_5_ + u4_6_ + u4_7_ + u4_8_ + u4_9_
   + u5_1_ + u5_2_ + u5_3_ + u5_4_ + u5_5_ + u5_6_ + u5_7_ + u5_8_ + u5_9_
   + u6_1_ + u6_2_ + u6_3_ + u6_4_ + u6_5_ + u6_6_ + u6_7_ + u6_8_ + u6_9_
   + u7_1_ + u7_2_ + u7_3_ + u7_4_ + u7_5_ + u7_6_ + u7_7_ + u7_8_ + u7_9_
   + u8_1_ + u8_2_ + u8_3_ + u8_4_ + u8_5_ + u8_6_ + u8_7_ + u8_8_ + u8_9_
   + u9_1_ + u9_2_ + u9_3_ + u9_4_ + u9_5_ + u9_6_ + u9_7_ + u9_8_ + u9_9_
   + u10_1_ + u10_2_ + u10_3_ + u10_4_ + u10_5_ + u10_6_ + u10_7_ + u10_8_
   + u10_9_ + u11_1_ + u11_2_ + u11_3_ + u11_4_ + u11_5_ + u11_6_ + u11_7_
   + u11_8_ + u11_9_
Subject To
 R0: x0_0_ + x0_1_ + x0_2_ + x0_3_ + x0_4_ + x0_5_ + x0_6_ + x0_7_ + x0_8_
   + x0_9_ + x0_n_ = 1
 R1: x1_0_ + x1_1_ + x1_2_ + x1_3_ + x1_4_ + x1_5_ + x1_6_ + x1_7_ + x1_8_
   + x1_9_ + x1_n_ = 1
 R2: x2_7_ + x2_8_ + x2_9_ + x2_n_ = 1
 R3: x3_0_ + x3_1_ + x3_2_ + x3_3_ + x3_4_ + x3_5_ + x3_6_ + x3_7_ + x3_8_
   + x3_9_ + x3_n_ = 1
 R4: x4_7_ + x4_8_ + x4_9_ + x4_n_ = 1
 R5: x5_0_ + x5_1_ + x5_2_ + x5_3_ + x5_4_ + x5_5_ + x5_6_ + x5_7_ + x5_8_
   + x5_9_ + x5_n_ = 1
 R6: x6_0_ + x6_1_ + x6_2_ + x6_3_ + x6_4_ + x6_5_ + x6_6_ + x6_7_ + x6_8_
   + x6_9_ + x6_n_ = 1
 R7: x7_7_ + x7_8_ + x7_9_ + x7_n_ = 1
 R8: x0_0_ + x1_0_ <= 1
 R9: x0_1_ + x1_1_ <= 1
 R10: x0_2_ + x1_2_ <= 1
 R11: x0_3_ + x1_3_ <= 1
 R12: x0_4_ + x1_4_ <= 1
 R13: x0_5_ + x1_5_ <= 1
 R14: x0_6_ + x1_6_ <= 1
 R15: x0_7_ + x1_7_ <= 1
 R16: x0_8_ + x1_8_ <= 1
 R17: x0_9_ + x1_9_ <= 1
 R18: x0_0_ + x6_0_ <= 1
 R19: x0_1_ + x6_1_ <= 1
 R20: x0_2_ + x6_2_ <= 1
 R21: x0_3_ + x6_3_ <= 1
 R22: x0_4_ + x6_4_ <= 1
 R23: x0_5_ + x6_5_ <= 1
 R24: x0_6_ + x6_6_ <= 1
 R25: x0_7_ + x6_7_ <= 1
 R26: x0_8_ + x6_8_ <= 1
 R27: x0_9_ + x6_9_ <= 1
 R28: x0_0_ + x1_0_ <= 1
 R29: x0_1_ + x1_1_ <= 1
 R30: x0_2_ + x1_2_ <= 1
 R31: x0_3_ + x1_3_ <= 1
 R32: x0_4_ + x1_4_ <= 1
 R33: x0_5_ + x1_5_ <= 1
 R34: x0_6_ + x1_6_ <= 1
 R35: x0_7_ + x1_7_ <= 1
 R36: x0_8_ + x1_8_ <= 1
 R37: x0_9_ + x1_9_ <= 1
 R38: x1_0_ + x6_0_ <= 1
 R39: x1_1_ + x6_1_ <= 1
 R40: x1_2_ + x6_2_ <= 1
 R41: x1_3_ + x6_3_ <= 1
 R42: x1_4_ + x6_4_ <= 1
 R43: x1_5_ + x6_5_ <= 1
 R44: x1_6_ + x6_6_ <= 1
 R45: x1_7_ + x6_7_ <= 1
 R46: x1_8_ + x6_8_ <= 1
 R47: x1_9_ + x6_9_ <= 1
 R48: x0_7_ + x2_7_ <= 1
 R49: x0_8_ + x2_8_ <= 1
 R50: x0_9_ + x2_9_ <= 1
 R51: x2_7_ + x4_7_ <= 1
 R52: x2_8_ + x4_8_ <= 1
 R53: x2_9_ + x4_9_ <= 1
 R54: x2_7_ + x6_7_ <= 1
 R55: x2_8_ + x6_8_ <= 1
 R56: x2_9_ + x6_9_ <= 1
 R57: x2_7_ + x7_7_ <= 1
 R58: x2_8_ + x7_8_ <= 1
 R59: x2_9_ + x7_9_ <= 1
 R60: x3_0_ + x6_0_ <= 1
 R61: x3_1_ + x6_1_ <= 1
 R62: x3_2_ + x6_2_ <= 1
 R63: x3_3_ + x6_3_ <= 1
 R64: x3_4_ + x6_4_ <= 1
 R65: x3_5_ + x6_5_ <= 1
 R66: x3_6_ + x6_6_ <= 1
 R67: x3_7_ + x6_7_ <= 1
 R68: x3_8_ + x6_8_ <= 1
 R69: x3_9_ + x6_9_ <= 1
 R70: x0_7_ + x4_7_ <= 1
 R71: x0_8_ + x4_8_ <= 1
 R72: x0_9_ + x4_9_ <= 1
 R73: x1_7_ + x4_7_ <= 1
 R74: x1_8_ + x4_8_ <= 1
 R75: x1_9_ + x4_9_ <= 1
 R76: x2_7_ + x4_7_ <= 1
 R77: x2_8_ + x4_8_ <= 1
 R78: x2_9_ + x4_9_ <= 1
 R79: x4_7_ + x6_7_ <= 1
 R80: x4_8_ + x6_8_ <= 1
 R81: x4_9_ + x6_9_ <= 1
 R82: x4_7_ + x7_7_ <= 1
 R83: x4_8_ + x7_8_ <= 1
 R84: x4_9_ + x7_9_ <= 1
 R85: x5_0_ + x6_0_ <= 1
 R86: x5_1_ + x6_1_ <= 1
 R87: x5_2_ + x6_2_ <= 1
 R88: x5_3_ + x6_3_ <= 1
 R89: x5_4_ + x6_4_ <= 1
 R90: x5_5_ + x6_5_ <= 1
 R91: x5_6_ + x6_6_ <= 1
 R92: x5_7_ + x6_7_ <= 1
 R93: x5_8_ + x6_8_ <= 1
 R94: x5_9_ + x6_9_ <= 1
 R95: x0_0_ + x6_0_ <= 1
 R96: x0_1_ + x6_1_ <= 1
 R97: x0_2_ + x6_2_ <= 1
 R98: x0_3_ + x6_3_ <= 1
 R99: x0_4_ + x6_4_ <= 1
 R100: x0_5_ + x6_5_ <= 1
 R101: x0_6_ + x6_6_ <= 1
 R102: x0_7_ + x6_7_ <= 1
 R103: x0_8_ + x6_8_ <= 1
 R104: x0_9_ + x6_9_ <= 1
 R105: x1_0_ + x6_0_ <= 1
 R106: x1_1_ + x6_1_ <= 1
 R107: x1_2_ + x6_2_ <= 1
 R108: x1_3_ + x6_3_ <= 1
 R109: x1_4_ + x6_4_ <= 1
 R110: x1_5_ + x6_5_ <= 1
 R111: x1_6_ + x6_6_ <= 1
 R112: x1_7_ + x6_7_ <= 1
 R113: x1_8_ + x6_8_ <= 1
 R114: x1_9_ + x6_9_ <= 1
 R115: x3_0_ + x6_0_ <= 1
 R116: x3_1_ + x6_1_ <= 1
 R117: x3_2_ + x6_2_ <= 1
 R118: x3_3_ + x6_3_ <= 1
 R119: x3_4_ + x6_4_ <= 1
 R120: x3_5_ + x6_5_ <= 1
 R121: x3_6_ + x6_6_ <= 1
 R122: x3_7_ + x6_7_ <= 1
 R123: x3_8_ + x6_8_ <= 1
 R124: x3_9_ + x6_9_ <= 1
 R125: x5_0_ + x6_0_ <= 1
 R126: x5_1_ + x6_1_ <= 1
 R127: x5_2_ + x6_2_ <= 1
 R128: x5_3_ + x6_3_ <= 1
 R129: x5_4_ + x6_4_ <= 1
 R130: x5_5_ + x6_5_ <= 1
 R131: x5_6_ + x6_6_ <= 1
 R132: x5_7_ + x6_7_ <= 1
 R133: x5_8_ + x6_8_ <= 1
 R134: x5_9_ + x6_9_ <= 1
 R135: x2_7_ + x7_7_ <= 1
 R136: x2_8_ + x7_8_ <= 1
 R137: x2_9_ + x7_9_ <= 1
 R138: x4_7_ + x7_7_ <= 1
 R139: x4_8_ + x7_8_ <= 1
 R140: x4_9_ + x7_9_ <= 1
 R141: x6_7_ + x7_7_ <= 1
 R142: x6_8_ + x7_8_ <= 1
 R143: x6_9_ + x7_9_ <= 1
 R144: - x0_0_ - x6_0_ + z0_1_ = 0
 R145: - x0_0_ - x1_0_ - x6_0_ + z0_2_ = 0
 R146: - x0_0_ - x6_0_ + z0_3_ = 0
 R147: - x6_0_ + z0_4_ = 0
 R148: - x6_0_ + z0_5_ = 0
 R149: - x5_0_ - x6_0_ + z0_6_ = 0
 R150: - x3_0_ - x6_0_ + z0_7_ = 0
 R151: - x6_0_ + z0_8_ = 0
 R152: - x6_0_ + z0_9_ = 0
 R153: - x0_1_ - x6_1_ + z1_1_ = 0
 R154: - x0_1_ - x1_1_ - x6_1_ + z1_2_ = 0
 R155: - x0_1_ - x6_1_ + z1_3_ = 0
 R156: - x6_1_ + z1_4_ = 0
 R157: - x6_1_ + z1_5_ = 0
 R158: - x5_1_ - x6_1_ + z1_6_ = 0
 R159: - x3_1_ - x6_1_ + z1_7_ = 0
 R160: - x6_1_ + z1_8_ = 0
 R161: - x6_1_ + z1_9_ = 0
 R162: - x0_2_ - x6_2_ + z2_1_ = 0
 R163: - x0_2_ - x1_2_ - x6_2_ + z2_2_ = 0
 R164: - x0_2_ - x6_2_ + z2_3_ = 0
 R165: - x6_2_ + z2_4_ = 0
 R166: - x6_2_ + z2_5_ = 0
 R167: - x5_2_ - x6_2_ + z2_6_ = 0
 R168: - x3_2_ - x6_2_ + z2_7_ = 0
 R169: - x6_2_ + z2_8_ = 0
 R170: - x6_2_ + z2_9_ = 0
 R171: - x0_3_ - x6_3_ + z3_1_ = 0
 R172: - x0_3_ - x1_3_ - x6_3_ + z3_2_ = 0
 R173: - x0_3_ - x6_3_ + z3_3_ = 0
 R174: - x6_3_ + z3_4_ = 0
 R175: - x6_3_ + z3_5_ = 0
 R176: - x5_3_ - x6_3_ + z3_6_ = 0
 R177: - x3_3_ - x6_3_ + z3_7_ = 0
 R178: - x6_3_ + z3_8_ = 0
 R179: - x6_3_ + z3_9_ = 0
 R180: - x0_4_ - x6_4_ + z4_1_ = 0
 R181: - x0_4_ - x1_4_ - x6_4_ + z4_2_ = 0
 R182: - x0_4_ - x6_4_ + z4_3_ = 0
 R183: - x6_4_ + z4_4_ = 0
 R184: - x6_4_ + z4_5_ = 0
 R185: - x5_4_ - x6_4_ + z4_6_ = 0
 R186: - x3_4_ - x6_4_ + z4_7_ = 0
 R187: - x6_4_ + z4_8_ = 0
 R188: - x6_4_ + z4_9_ = 0
 R189: - x0_5_ - x6_5_ + z5_1_ = 0
 R190: - x0_5_ - x1_5_ - x6_5_ + z5_2_ = 0
 R191: - x0_5_ - x6_5_ + z5_3_ = 0
 R192: - x6_5_ + z5_4_ = 0
 R193: - x6_5_ + z5_5_ = 0
 R194: - x5_5_ - x6_5_ + z5_6_ = 0
 R195: - x3_5_ - x6_5_ + z5_7_ = 0
 R196: - x6_5_ + z5_8_ = 0
 R197: - x6_5_ + z5_9_ = 0
 R198: - x0_6_ - x6_6_ + z6_1_ = 0
 R199: - x0_6_ - x1_6_ - x6_6_ + z6_2_ = 0
 R200: - x0_6_ - x6_6_ + z6_3_ = 0
 R201: - x6_6_ + z6_4_ = 0
 R202: - x6_6_ + z6_5_ = 0
 R203: - x5_6_ - x6_6_ + z6_6_ = 0
 R204: - x3_6_ - x6_6_ + z6_7_ = 0
 R205: - x6_6_ + z6_8_ = 0
 R206: - x6_6_ + z6_9_ = 0
 R207: - x0_7_ - x6_7_ + z7_1_ = 0
 R208: - x0_7_ - x1_7_ - x4_7_ - x6_7_ + z7_2_ = 0
 R209: - x0_7_ - x2_7_ - x4_7_ - x6_7_ + z7_3_ = 0
 R210: - x2_7_ - x4_7_ - x6_7_ - x7_7_ + z7_4_ = 0
 R211: - x6_7_ + z7_5_ = 0
 R212: - x5_7_ - x6_7_ + z7_6_ = 0
 R213: - x3_7_ - x6_7_ + z7_7_ = 0
 R214: - x6_7_ + z7_8_ = 0
 R215: - x6_7_ + z7_9_ = 0
 R216: - x0_8_ - x6_8_ + z8_1_ = 0
 R217: - x0_8_ - x1_8_ - x4_8_ - x6_8_ + z8_2_ = 0
 R218: - x0_8_ - x2_8_ - x4_8_ - x6_8_ + z8_3_ = 0
 R219: - x2_8_ - x4_8_ - x6_8_ - x7_8_ + z8_4_ = 0
 R220: - x6_8_ + z8_5_ = 0
 R221: - x5_8_ - x6_8_ + z8_6_ = 0
 R222: - x3_8_ - x6_8_ + z8_7_ = 0
 R223: - x6_8_ + z8_8_ = 0
 R224: - x6_8_ + z8_9_ = 0
 R225: - x0_9_ - x6_9_ + z9_1_ = 0
 R226: - x0_9_ - x1_9_ - x4_9_ - x6_9_ + z9_2_ = 0
 R227: - x0_9_ - x2_9_ - x4_9_ - x6_9_ + z9_3_ = 0
 R228: - x2_9_ - x4_9_ - x6_9_ - x7_9_ + z9_4_ = 0
 R229: - x6_9_ + z9_5_ = 0
 R230: - x5_9_ - x6_9_ + z9_6_ = 0
 R231: - x3_9_ - x6_9_ + z9_7_ = 0
 R232: - x6_9_ + z9_8_ = 0
 R233: - x6_9_ + z9_9_ = 0
 R234: 1.422405587705924 T0_1_ - 0.2452189584466334 T2_1_
   - 0.4784599146741024 T11_1_ + T0_2_ - 67.36456610084153 u0_1_
   = 6.012892754939919
 R235: 1.403101551730581 T1_1_ - 0.0607749752427509 T3_1_
   - 0.6492893513346651 T11_1_ + T1_2_ - 67.36588409138051 u1_1_
   = 5.963931853530234
 R236: 0.245218958407685 T0_1_ + 1.062187229610454 T2_1_
   - 0.0959811361962648 T4_1_ - 0.6448861185302691 T11_1_ + T2_2_
   - 67.36508325274563 u2_1_ = 4.875350800638612
 R237: 0.060774975244549 T1_1_ + 1.446318615131833 T3_1_
   - 0.1521484209350464 T5_1_ - 0.7650546166966313 T11_1_ + T3_2_
   - 67.36572383493461 u3_1_ = 5.076303162262586
 R238: 0.0959811361711206 T2_1_ + 1.152922611894393 T4_1_
   - 0.1169349049687085 T6_1_ - 0.7142546345425526 T11_1_ + T4_2_
   - 67.36481428411382 u4_1_ = 3.594639629232473
 R239: 0.1521484209690342 T3_1_ + 1.161737873190128 T5_1_
   - 0.3124493114169655 T7_1_ - 0.46189301789556 T11_1_ + T5_2_
   - 67.36517839416429 u5_1_ = 4.643045599199518
 R240: 0.1169349049952813 T4_1_ + 1.098233231651729 T6_1_
   - 0.0948433621662279 T9_1_ - 0.5630967958693752 T11_1_ + T6_2_
   - 67.36499121519519 u6_1_ = 4.795225379970571
 R241: 0.3124910489531333 T5_1_ + 0.00417429286512999 T7_1_
   - 0.1332039381012143 T8_1_ - 0.1834603069701986 T11_1_ + T7_2_
   - 67.36208836155105 u7_1_ = 9.43806e-06
 R242: 0.1332883975214912 T7_1_ + 0.7887492199639645 T8_1_
   - 0.3944200710920894 T11_1_ + T8_2_ - 67.41763505677174 u8_1_
   = 4.54041280498523
 R243: 0.0948433621403843 T6_1_ + 1.180963331521891 T9_1_
   - 0.0522691410268722 T10_1_ - 0.4941751217977715 T11_1_ + T9_2_
   - 67.36456606944674 u9_1_ = 6.276528411701762
 R244: 0.0254449233540786 T9_1_ + 0.5922690459753603 T10_1_
   - 4.01343e-07 T11_1_ + T10_2_ - 6.167215361259557 u10_1_
   = 5.315734120422572
 R245: 0.0322479306415751 T0_1_ + 0.0437617391295671 T1_1_
   + 0.0434649637045288 T2_1_ + 0.051564253265416 T3_1_
   + 0.0481403628985995 T4_1_ + 0.0311313310594894 T5_1_
   + 0.0379524091032205 T6_1_ + 0.0123634705420658 T7_1_
   + 0.0265632988098713 T8_1_ + 0.033307126827559 T9_1_ + 5.5567e-08 T10_1_
   - 0.3604961752646021 T11_1_ + T11_2_ - 1.557209900210421 u11_1_
   = 6.59426e-06
 R246: 1.422405587705924 T0_2_ - 0.2452189584466334 T2_2_
   - 0.4784599146741024 T11_2_ + T0_3_ - 67.36456610084153 u0_2_
   = 6.711619469525107
 R247: 1.403101551730581 T1_2_ - 0.0607749752427509 T3_2_
   - 0.6492893513346651 T11_2_ + T1_3_ - 67.36588409138051 u1_2_
   = 6.6569690786834
 R248: 0.245218958407685 T0_2_ + 1.062187229610454 T2_2_
   - 0.0959811361962648 T4_2_ - 0.6448861185302691 T11_2_ + T2_3_
   - 67.36508325274563 u2_2_ = 5.441889733930217
 R249: 0.060774975244549 T1_2_ + 1.446318615131833 T3_2_
   - 0.1521484209350464 T5_2_ - 0.7650546166966313 T11_2_ + T3_3_
   - 67.36572383493461 u3_2_ = 5.666193715007291
 R250: 0.0959811361711206 T2_2_ + 1.152922611894393 T4_2_
   - 0.1169349049687085 T6_2_ - 0.7142546345425526 T11_2_ + T4_3_
   - 67.36481428411382 u4_2_ = 4.012353837786725
 R251: 0.1521484209690342 T3_2_ + 1.161737873190128 T5_2_
   - 0.3124493114169655 T7_2_ - 0.46189301789556 T11_2_ + T5_3_
   - 67.36517839416429 u5_2_ = 5.182589564046155
 R252: 0.1169349049952813 T4_2_ + 1.098233231651729 T6_2_
   - 0.0948433621662279 T9_2_ - 0.5630967958693752 T11_2_ + T6_3_
   - 67.36499121519519 u6_2_ = 5.352453358581978
 R253: 0.3124910489531333 T5_2_ + 0.00417429286512999 T7_2_
   - 0.1332039381012143 T8_2_ - 0.1834603069701986 T11_2_ + T7_3_
   - 67.36208836155105 u7_2_ = 1.05348e-05
 R254: 0.1332883975214912 T7_2_ + 0.7887492199639645 T8_2_
   - 0.3944200710920894 T11_2_ + T8_3_ - 67.41763505677174 u8_2_
   = 5.068030351378597
 R255: 0.0948433621403843 T6_2_ + 1.180963331521891 T9_2_
   - 0.0522691410268722 T10_2_ - 0.4941751217977715 T11_2_ + T9_3_
   - 67.36456606944674 u9_2_ = 7.005890842539392
 R256: 0.0254449233540786 T9_2_ + 0.5922690459753603 T10_2_
   - 4.01343e-07 T11_2_ + T10_3_ - 6.167215361259557 u10_2_
   = 5.933447688408595
 R257: 0.0322479306415751 T0_2_ + 0.0437617391295671 T1_2_
   + 0.0434649637045288 T2_2_ + 0.051564253265416 T3_2_
   + 0.0481403628985995 T4_2_ + 0.0311313310594894 T5_2_
   + 0.0379524091032205 T6_2_ + 0.0123634705420658 T7_2_
   + 0.0265632988098713 T8_2_ + 0.033307126827559 T9_2_ + 5.5567e-08 T10_2_
   - 0.3604961752646021 T11_2_ + T11_3_ - 1.557209900210421 u11_2_
   = 7.36054e-06
 R258: 1.422405587705924 T0_3_ - 0.2452189584466334 T2_3_
   - 0.4784599146741024 T11_3_ + T0_4_ - 67.36456610084153 u0_3_
   = 5.104548025979174
 R259: 1.403101551730581 T1_3_ - 0.0607749752427509 T3_3_
   - 0.6492893513346651 T11_3_ + T1_4_ - 67.36588409138051 u1_3_
   = 5.062983460831118
 R260: 0.245218958407685 T0_3_ + 1.062187229610454 T2_3_
   - 0.0959811361962648 T4_3_ - 0.6448861185302691 T11_3_ + T2_4_
   - 67.36508325274563 u2_3_ = 4.138850187359524
 R261: 0.060774975244549 T1_3_ + 1.446318615131833 T3_3_
   - 0.1521484209350464 T5_3_ - 0.7650546166966313 T11_3_ + T3_4_
   - 67.36572383493461 u3_3_ = 4.309445443694469
 R262: 0.0959811361711206 T2_3_ + 1.152922611894393 T4_3_
   - 0.1169349049687085 T6_3_ - 0.7142546345425526 T11_3_ + T4_4_
   - 67.36481428411382 u4_3_ = 3.051611158111945
 R263: 0.1521484209690342 T3_3_ + 1.161737873190128 T5_3_
   - 0.3124493114169655 T7_3_ - 0.46189301789556 T11_3_ + T5_4_
   - 67.36517839416429 u5_3_ = 3.941638444898892
 R264: 0.1169349049952813 T4_3_ + 1.098233231651729 T6_3_
   - 0.0948433621662279 T9_3_ - 0.5630967958693752 T11_3_ + T6_4_
   - 67.36499121519519 u6_3_ = 4.070829007775741
 R265: 0.3124910489531333 T5_3_ + 0.00417429286512999 T7_3_
   - 0.1332039381012143 T8_3_ - 0.1834603069701986 T11_3_ + T7_4_
   - 67.36208836155105 u7_3_ = 8.01228e-06
 R266: 0.1332883975214912 T7_3_ + 0.7887492199639645 T8_3_
   - 0.3944200710920894 T11_3_ + T8_4_ - 67.41763505677174 u8_3_
   = 3.854509994673854
 R267: 0.0948433621403843 T6_3_ + 1.180963331521891 T9_3_
   - 0.0522691410268722 T10_3_ - 0.4941751217977715 T11_3_ + T9_4_
   - 67.36456606944674 u9_3_ = 5.32835725161284
 R268: 0.0254449233540786 T9_3_ + 0.5922690459753603 T10_3_
   - 4.01343e-07 T11_3_ + T10_4_ - 6.167215361259557 u10_3_
   = 4.51270648204074
 R269: 0.0322479306415751 T0_3_ + 0.0437617391295671 T1_3_
   + 0.0434649637045288 T2_3_ + 0.051564253265416 T3_3_
   + 0.0481403628985995 T4_3_ + 0.0311313310594894 T5_3_
   + 0.0379524091032205 T6_3_ + 0.0123634705420658 T7_3_
   + 0.0265632988098713 T8_3_ + 0.033307126827559 T9_3_ + 5.5567e-08 T10_3_
   - 0.3604961752646021 T11_3_ + T11_4_ - 1.557209900210421 u11_3_
   = 5.59809e-06
 R270: 1.422405587705924 T0_4_ - 0.2452189584466334 T2_4_
   - 0.4784599146741024 T11_4_ + T0_5_ - 67.36456610084153 u0_4_
   = 8.074136564363677
 R271: 1.403101551730581 T1_4_ - 0.0607749752427509 T3_4_
   - 0.6492893513346651 T11_4_ + T1_5_ - 67.36588409138051 u1_4_
   = 8.008391669118145
 R272: 0.245218958407685 T0_4_ + 1.062187229610454 T2_4_
   - 0.0959811361962648 T4_4_ - 0.6448861185302691 T11_4_ + T2_5_
   - 67.36508325274563 u2_4_ = 6.546640654981926
 R273: 0.060774975244549 T1_4_ + 1.446318615131833 T3_4_
   - 0.1521484209350464 T5_4_ - 0.7650546166966313 T11_4_ + T3_5_
   - 67.36572383493461 u3_4_ = 6.816480294039246
 R274: 0.0959811361711206 T2_4_ + 1.152922611894393 T4_4_
   - 0.1169349049687085 T6_4_ - 0.7142546345425526 T11_4_ + T4_5_
   - 67.36481428411382 u4_4_ = 4.826896545302945
 R275: 0.1521484209690342 T3_4_ + 1.161737873190128 T5_4_
   - 0.3124493114169655 T7_4_ - 0.46189301789556 T11_4_ + T5_5_
   - 67.36517839416429 u5_4_ = 6.234700296576182
 R276: 0.1169349049952813 T4_4_ + 1.098233231651729 T6_4_
   - 0.0948433621662279 T9_4_ - 0.5630967958693752 T11_4_ + T6_5_
   - 67.36499121519519 u6_4_ = 6.439047917988678
 R277: 0.3124910489531333 T5_4_ + 0.00417429286512999 T7_4_
   - 0.1332039381012143 T8_4_ - 0.1834603069701986 T11_4_ + T7_5_
   - 67.36208836155105 u7_4_ = 1.26735e-05
 R278: 0.1332883975214912 T7_4_ + 0.7887492199639645 T8_4_
   - 0.3944200710920894 T11_4_ + T8_5_ - 67.41763505677174 u8_4_
   = 6.096884567900896
 R279: 0.0948433621403843 T6_4_ + 1.180963331521891 T9_4_
   - 0.0522691410268722 T10_4_ - 0.4941751217977715 T11_4_ + T9_5_
   - 67.36456606944674 u9_4_ = 8.428147584131498
 R280: 0.0254449233540786 T9_4_ + 0.5922690459753603 T10_4_
   - 4.01343e-07 T11_4_ + T10_5_ - 6.167215361259557 u10_4_
   = 7.13798914721677
 R281: 0.0322479306415751 T0_4_ + 0.0437617391295671 T1_4_
   + 0.0434649637045288 T2_4_ + 0.051564253265416 T3_4_
   + 0.0481403628985995 T4_4_ + 0.0311313310594894 T5_4_
   + 0.0379524091032205 T6_4_ + 0.0123634705420658 T7_4_
   + 0.0265632988098713 T8_4_ + 0.033307126827559 T9_4_ + 5.5567e-08 T10_4_
   - 0.3604961752646021 T11_4_ + T11_5_ - 1.557209900210421 u11_4_
   = 8.8548e-06
 R282: 1.422405587705924 T0_5_ - 0.2452189584466334 T2_5_
   - 0.4784599146741024 T11_5_ + T0_6_ - 67.36456610084153 u0_5_
   = 5.418975047542509
 R283: 1.403101551730581 T1_5_ - 0.0607749752427509 T3_5_
   - 0.6492893513346651 T11_5_ + T1_6_ - 67.36588409138051 u1_5_
   = 5.374850212150044
 R284: 0.245218958407685 T0_5_ + 1.062187229610454 T2_5_
   - 0.0959811361962648 T4_5_ - 0.6448861185302691 T11_5_ + T2_6_
   - 67.36508325274563 u2_5_ = 4.393792707340746
 R285: 0.060774975244549 T1_5_ + 1.446318615131833 T3_5_
   - 0.1521484209350464 T5_5_ - 0.7650546166966313 T11_5_ + T3_6_
   - 67.36572383493461 u3_5_ = 4.574896192429587
 R286: 0.0959811361711206 T2_5_ + 1.152922611894393 T4_5_
   - 0.1169349049687085 T6_5_ - 0.7142546345425526 T11_5_ + T4_6_
   - 67.36481428411382 u4_5_ = 3.239582551961358
 R287: 0.1521484209690342 T3_5_ + 1.161737873190128 T5_5_
   - 0.3124493114169655 T7_5_ - 0.46189301789556 T11_5_ + T5_6_
   - 67.36517839416429 u5_5_ = 4.184433229079877
 R288: 0.1169349049952813 T4_5_ + 1.098233231651729 T6_5_
   - 0.0948433621662279 T9_5_ - 0.5630967958693752 T11_5_ + T6_6_
   - 67.36499121519519 u6_5_ = 4.321581598150874
 R289: 0.3124910489531333 T5_5_ + 0.00417429286512999 T7_5_
   - 0.1332039381012143 T8_5_ - 0.1834603069701986 T11_5_ + T7_6_
   - 67.36208836155105 u7_5_ = 8.50582e-06
 R290: 0.1332883975214912 T7_5_ + 0.7887492199639645 T8_5_
   - 0.3944200710920894 T11_5_ + T8_6_ - 67.41763505677174 u8_5_
   = 4.091937890550868
 R291: 0.0948433621403843 T6_5_ + 1.180963331521891 T9_5_
   - 0.0522691410268722 T10_5_ - 0.4941751217977715 T11_5_ + T9_6_
   - 67.36456606944674 u9_5_ = 5.656570345489774
 R292: 0.0254449233540786 T9_5_ + 0.5922690459753603 T10_5_
   - 4.01343e-07 T11_5_ + T10_6_ - 6.167215361259557 u10_5_
   = 4.790677587634452
 R293: 0.0322479306415751 T0_5_ + 0.0437617391295671 T1_5_
   + 0.0434649637045288 T2_5_ + 0.051564253265416 T3_5_
   + 0.0481403628985995 T4_5_ + 0.0311313310594894 T5_5_
   + 0.0379524091032205 T6_5_ + 0.0123634705420658 T7_5_
   + 0.0265632988098713 T8_5_ + 0.033307126827559 T9_5_ + 5.5567e-08 T10_5_
   - 0.3604961752646021 T11_5_ + T11_6_ - 1.557209900210421 u11_5_
   = 5.94292e-06
 R294: 1.422405587705924 T0_6_ - 0.2452189584466334 T2_6_
   - 0.4784599146741024 T11_6_ + T0_7_ - 67.36456610084153 u0_6_
   = 8.668054271761088
 R295: 1.403101551730581 T1_6_ - 0.0607749752427509 T3_6_
   - 0.6492893513346651 T11_6_ + T1_7_ - 67.36588409138051 u1_6_
   = 8.597473310498335
 R296: 0.245218958407685 T0_6_ + 1.062187229610454 T2_6_
   - 0.0959811361962648 T4_6_ - 0.6448861185302691 T11_6_ + T2_7_
   - 67.36508325274563 u2_6_ = 7.028198748279789
 R297: 0.060774975244549 T1_6_ + 1.446318615131833 T3_6_
   - 0.1521484209350464 T5_6_ - 0.7650546166966313 T11_6_ + T3_7_
   - 67.36572383493461 u3_6_ = 7.317887263872244
 R298: 0.0959811361711206 T2_6_ + 1.152922611894393 T4_6_
   - 0.1169349049687085 T6_6_ - 0.7142546345425526 T11_6_ + T4_7_
   - 67.36481428411382 u4_6_ = 5.181953622574059
 R299: 0.1521484209690342 T3_6_ + 1.161737873190128 T5_6_
   - 0.3124493114169655 T7_6_ - 0.46189301789556 T11_6_ + T5_7_
   - 67.36517839416429 u5_6_ = 6.693312666695824
 R300: 0.1169349049952813 T4_6_ + 1.098233231651729 T6_6_
   - 0.0948433621662279 T9_6_ - 0.5630967958693752 T11_6_ + T6_7_
   - 67.36499121519519 u6_6_ = 6.912691699808374
 R301: 0.3124910489531333 T5_6_ + 0.00417429286512999 T7_6_
   - 0.1332039381012143 T8_6_ - 0.1834603069701986 T11_6_ + T7_7_
   - 67.36208836155105 u7_6_ = 1.36057e-05
 R302: 0.1332883975214912 T7_6_ + 0.7887492199639645 T8_6_
   - 0.3944200710920894 T11_6_ + T8_7_ - 67.41763505677174 u8_6_
   = 6.545359482335257
 R303: 0.0948433621403843 T6_6_ + 1.180963331521891 T9_6_
   - 0.0522691410268722 T10_6_ - 0.4941751217977715 T11_6_ + T9_7_
   - 67.36456606944674 u9_6_ = 9.048105650343484
 R304: 0.0254449233540786 T9_6_ + 0.5922690459753603 T10_6_
   - 4.01343e-07 T11_6_ + T10_7_ - 6.167215361259557 u10_6_
   = 7.663045680004889
 R305: 0.0322479306415751 T0_6_ + 0.0437617391295671 T1_6_
   + 0.0434649637045288 T2_6_ + 0.051564253265416 T3_6_
   + 0.0481403628985995 T4_6_ + 0.0311313310594894 T5_6_
   + 0.0379524091032205 T6_6_ + 0.0123634705420658 T7_6_
   + 0.0265632988098713 T8_6_ + 0.033307126827559 T9_6_ + 5.5567e-08 T10_6_
   - 0.3604961752646021 T11_6_ + T11_7_ - 1.557209900210421 u11_6_
   = 9.50614e-06
 R306: 1.422405587705924 T0_7_ - 0.2452189584466334 T2_7_
   - 0.4784599146741024 T11_7_ + T0_8_ - 67.36456610084153 u0_7_
   = 9.139694804106089
 R307: 1.403101551730581 T1_7_ - 0.0607749752427509 T3_7_
   - 0.6492893513346651 T11_7_ + T1_8_ - 67.36588409138051 u1_7_
   = 9.065273437476723
 R308: 0.245218958407685 T0_7_ + 1.062187229610454 T2_7_
   - 0.0959811361962648 T4_7_ - 0.6448861185302691 T11_7_ + T2_8_
   - 67.36508325274563 u2_7_ = 7.410612528251623
 R309: 0.060774975244549 T1_7_ + 1.446318615131833 T3_7_
   - 0.1521484209350464 T5_7_ - 0.7650546166966313 T11_7_ + T3_8_
   - 67.36572383493461 u3_7_ = 7.71606338697492
 R310: 0.0959811361711206 T2_7_ + 1.152922611894393 T4_7_
   - 0.1169349049687085 T6_7_ - 0.7142546345425526 T11_7_ + T4_8_
   - 67.36481428411382 u4_7_ = 5.46391071334818
 R311: 0.1521484209690342 T3_7_ + 1.161737873190128 T5_7_
   - 0.3124493114169655 T7_7_ - 0.46189301789556 T11_7_ + T5_8_
   - 67.36517839416429 u5_7_ = 7.057504842967303
 R312: 0.1169349049952813 T4_7_ + 1.098233231651729 T6_7_
   - 0.0948433621662279 T9_7_ - 0.5630967958693752 T11_7_ + T6_8_
   - 67.36499121519519 u6_7_ = 7.288820585371075
 R313: 0.3124910489531333 T5_7_ + 0.00417429286512999 T7_7_
   - 0.1332039381012143 T8_7_ - 0.1834603069701986 T11_7_ + T7_8_
   - 67.36208836155105 u7_7_ = 1.4346e-05
 R314: 0.1332883975214912 T7_7_ + 0.7887492199639645 T8_7_
   - 0.3944200710920894 T11_7_ + T8_8_ - 67.41763505677174 u8_7_
   = 6.90150132615078
 R315: 0.0948433621403843 T6_7_ + 1.180963331521891 T9_7_
   - 0.0522691410268722 T10_7_ - 0.4941751217977715 T11_7_ + T9_8_
   - 67.36456606944674 u9_7_ = 9.540425291158885
 R316: 0.0254449233540786 T9_7_ + 0.5922690459753603 T10_7_
   - 4.01343e-07 T11_7_ + T10_8_ - 6.167215361259557 u10_7_
   = 8.080002338395456
 R317: 0.0322479306415751 T0_7_ + 0.0437617391295671 T1_7_
   + 0.0434649637045288 T2_7_ + 0.051564253265416 T3_7_
   + 0.0481403628985995 T4_7_ + 0.0311313310594894 T5_7_
   + 0.0379524091032205 T6_7_ + 0.0123634705420658 T7_7_
   + 0.0265632988098713 T8_7_ + 0.033307126827559 T9_7_ + 5.5567e-08 T10_7_
   - 0.3604961752646021 T11_7_ + T11_8_ - 1.557209900210421 u11_7_
   = 1.00234e-05
 R318: 1.422405587705924 T0_8_ - 0.2452189584466334 T2_8_
   - 0.4784599146741024 T11_8_ + T0_9_ - 67.36456610084153 u0_8_
   = 7.253132674726081
 R319: 1.403101551730581 T1_8_ - 0.0607749752427509 T3_8_
   - 0.6492893513346651 T11_8_ + T1_9_ - 67.36588409138051 u1_8_
   = 7.194072929563176
 R320: 0.245218958407685 T0_8_ + 1.062187229610454 T2_8_
   - 0.0959811361962648 T4_8_ - 0.6448861185302691 T11_8_ + T2_9_
   - 67.36508325274563 u2_8_ = 5.880957408364288
 R321: 0.060774975244549 T1_8_ + 1.446318615131833 T3_8_
   - 0.1521484209350464 T5_8_ - 0.7650546166966313 T11_8_ + T3_9_
   - 67.36572383493461 u3_8_ = 6.123358894564217
 R322: 0.0959811361711206 T2_8_ + 1.152922611894393 T4_8_
   - 0.1169349049687085 T6_8_ - 0.7142546345425526 T11_8_ + T4_9_
   - 67.36481428411382 u4_8_ = 4.336082350251698
 R323: 0.1521484209690342 T3_8_ + 1.161737873190128 T5_8_
   - 0.3124493114169655 T7_8_ - 0.46189301789556 T11_8_ + T5_9_
   - 67.36517839416429 u5_8_ = 5.600736137881385
 R324: 0.1169349049952813 T4_8_ + 1.098233231651729 T6_8_
   - 0.0948433621662279 T9_8_ - 0.5630967958693752 T11_8_ + T6_9_
   - 67.36499121519519 u6_8_ = 5.784305043120273
 R325: 0.3124910489531333 T5_8_ + 0.00417429286512999 T7_8_
   - 0.1332039381012143 T8_8_ - 0.1834603069701986 T11_8_ + T7_9_
   - 67.36208836155105 u7_8_ = 1.13848e-05
 R326: 0.1332883975214912 T7_8_ + 0.7887492199639645 T8_8_
   - 0.3944200710920894 T11_8_ + T8_9_ - 67.41763505677174 u8_8_
   = 5.47693395088869
 R327: 0.0948433621403843 T6_8_ + 1.180963331521891 T9_8_
   - 0.0522691410268722 T10_8_ - 0.4941751217977715 T11_8_ + T9_9_
   - 67.36456606944674 u9_8_ = 7.571146727897281
 R328: 0.0254449233540786 T9_8_ + 0.5922690459753603 T10_8_
   - 4.01343e-07 T11_8_ + T10_9_ - 6.167215361259557 u10_8_
   = 6.412175704833191
 R329: 0.0322479306415751 T0_8_ + 0.0437617391295671 T1_8_
   + 0.0434649637045288 T2_8_ + 0.051564253265416 T3_8_
   + 0.0481403628985995 T4_8_ + 0.0311313310594894 T5_8_
   + 0.0379524091032205 T6_8_ + 0.0123634705420658 T7_8_
   + 0.0265632988098713 T8_8_ + 0.033307126827559 T9_8_ + 5.5567e-08 T10_8_
   - 0.3604961752646021 T11_8_ + T11_9_ - 1.557209900210421 u11_8_
   = 7.95441e-06
 R330: 1.422405587705924 T0_9_ - 0.2452189584466334 T2_9_
   - 0.4784599146741024 T11_9_ + T0_10_ - 67.36456610084153 u0_9_
   = 6.554405958743439
 R331: 1.403101551730581 T1_9_ - 0.0607749752427509 T3_9_
   - 0.6492893513346651 T11_9_ + T1_10_ - 67.36588409138051 u1_9_
   = 6.501035703023937
 R332: 0.245218958407685 T0_9_ + 1.062187229610454 T2_9_
   - 0.0959811361962648 T4_9_ - 0.6448861185302691 T11_9_ + T2_10_
   - 67.36508325274563 u2_9_ = 5.314418473939605
 R333: 0.060774975244549 T1_9_ + 1.446318615131833 T3_9_
   - 0.1521484209350464 T5_9_ - 0.7650546166966313 T11_9_ + T3_10_
   - 67.36572383493461 u3_9_ = 5.533468340639731
 R334: 0.0959811361711206 T2_9_ + 1.152922611894393 T4_9_
   - 0.1169349049687085 T6_9_ - 0.7142546345425526 T11_9_ + T4_10_
   - 67.36481428411382 u4_9_ = 3.918368140862018
 R335: 0.1521484209690342 T3_9_ + 1.161737873190128 T5_9_
   - 0.3124493114169655 T7_9_ - 0.46189301789556 T11_9_ + T5_10_
   - 67.36517839416429 u5_9_ = 5.061192171955661
 R336: 0.1169349049952813 T4_9_ + 1.098233231651729 T6_9_
   - 0.0948433621662279 T9_9_ - 0.5630967958693752 T11_9_ + T6_10_
   - 67.36499121519519 u6_9_ = 5.227077063394411
 R337: 0.3124910489531333 T5_9_ + 0.00417429286512999 T7_9_
   - 0.1332039381012143 T8_9_ - 0.1834603069701986 T11_9_ + T7_10_
   - 67.36208836155105 u7_9_ = 1.0288e-05
 R338: 0.1332883975214912 T7_9_ + 0.7887492199639645 T8_9_
   - 0.3944200710920894 T11_9_ + T8_10_ - 67.41763505677174 u8_9_
   = 4.949316403440088
 R339: 0.0948433621403843 T6_9_ + 1.180963331521891 T9_9_
   - 0.0522691410268722 T10_9_ - 0.4941751217977715 T11_9_ + T9_10_
   - 67.36456606944674 u9_9_ = 6.841784295600924
 R340: 0.0254449233540786 T9_9_ + 0.5922690459753603 T10_9_
   - 4.01343e-07 T11_9_ + T10_10_ - 6.167215361259557 u10_9_
   = 5.79446213561174
 R341: 0.0322479306415751 T0_9_ + 0.0437617391295671 T1_9_
   + 0.0434649637045288 T2_9_ + 0.051564253265416 T3_9_
   + 0.0481403628985995 T4_9_ + 0.0311313310594894 T5_9_
   + 0.0379524091032205 T6_9_ + 0.0123634705420658 T7_9_
   + 0.0265632988098713 T8_9_ + 0.033307126827559 T9_9_ + 5.5567e-08 T10_9_
   - 0.3604961752646021 T11_9_ + T11_10_ - 1.557209900210421 u11_9_
   = 7.18813e-06
 R342: u0_1_ >= 0
 R343: u1_1_ >= 0
 R344: u2_1_ >= 0
 R345: u3_1_ >= 0
 R346: u4_1_ >= 0
 R347: u5_1_ >= 0
 R348: u6_1_ >= 0
 R349: u7_1_ >= 0
 R350: u8_1_ >= 0
 R351: u9_1_ >= 0
 R352: u10_1_ >= 0
 R353: u11_1_ >= 0
 R354: u0_2_ >= 0
 R355: u1_2_ >= 0
 R356: u2_2_ >= 0
 R357: u3_2_ >= 0
 R358: u4_2_ >= 0
 R359: u5_2_ >= 0
 R360: u6_2_ >= 0
 R361: u7_2_ >= 0
 R362: u8_2_ >= 0
 R363: u9_2_ >= 0
 R364: u10_2_ >= 0
 R365: u11_2_ >= 0
 R366: u0_3_ >= 0
 R367: u1_3_ >= 0
 R368: u2_3_ >= 0
 R369: u3_3_ >= 0
 R370: u4_3_ >= 0
 R371: u5_3_ >= 0
 R372: u6_3_ >= 0
 R373: u7_3_ >= 0
 R374: u8_3_ >= 0
 R375: u9_3_ >= 0
 R376: u10_3_ >= 0
 R377: u11_3_ >= 0
 R378: u0_4_ >= 0
 R379: u1_4_ >= 0
 R380: u2_4_ >= 0
 R381: u3_4_ >= 0
 R382: u4_4_ >= 0
 R383: u5_4_ >= 0
 R384: u6_4_ >= 0
 R385: u7_4_ >= 0
 R386: u8_4_ >= 0
 R387: u9_4_ >= 0
 R388: u10_4_ >= 0
 R389: u11_4_ >= 0
 R390: u0_5_ >= 0
 R391: u1_5_ >= 0
 R392: u2_5_ >= 0
 R393: u3_5_ >= 0
 R394: u4_5_ >= 0
 R395: u5_5_ >= 0
 R396: u6_5_ >= 0
 R397: u7_5_ >= 0
 R398: u8_5_ >= 0
 R399: u9_5_ >= 0
 R400: u10_5_ >= 0
 R401: u11_5_ >= 0
 R402: u0_6_ >= 0
 R403: u1_6_ >= 0
 R404: u2_6_ >= 0
 R405: u3_6_ >= 0
 R406: u4_6_ >= 0
 R407: u5_6_ >= 0
 R408: u6_6_ >= 0
 R409: u7_6_ >= 0
 R410: u8_6_ >= 0
 R411: u9_6_ >= 0
 R412: u10_6_ >= 0
 R413: u11_6_ >= 0
 R414: u0_7_ >= 0
 R415: u1_7_ >= 0
 R416: u2_7_ >= 0
 R417: u3_7_ >= 0
 R418: u4_7_ >= 0
 R419: u5_7_ >= 0
 R420: u6_7_ >= 0
 R421: u7_7_ >= 0
 R422: u8_7_ >= 0
 R423: u9_7_ >= 0
 R424: u10_7_ >= 0
 R425: u11_7_ >= 0
 R426: u0_8_ >= 0
 R427: u1_8_ >= 0
 R428: u2_8_ >= 0
 R429: u3_8_ >= 0
 R430: u4_8_ >= 0
 R431: u5_8_ >= 0
 R432: u6_8_ >= 0
 R433: u7_8_ >= 0
 R434: u8_8_ >= 0
 R435: u9_8_ >= 0
 R436: u10_8_ >= 0
 R437: u11_8_ >= 0
 R438: u0_9_ >= 0
 R439: u1_9_ >= 0
 R440: u2_9_ >= 0
 R441: u3_9_ >= 0
 R442: u4_9_ >= 0
 R443: u5_9_ >= 0
 R444: u6_9_ >= 0
 R445: u7_9_ >= 0
 R446: u8_9_ >= 0
 R447: u9_9_ >= 0
 R448: u10_9_ >= 0
 R449: u11_9_ >= 0
 R450: - 100 z0_1_ + T0_1_ + u0_1_ >= -80
 R451: - 100 z1_1_ + T1_1_ + u1_1_ >= -80
 R452: - 100 z2_1_ + T2_1_ + u2_1_ >= -80
 R453: - 100 z3_1_ + T3_1_ + u3_1_ >= -80
 R454: - 100 z4_1_ + T4_1_ + u4_1_ >= -80
 R455: - 100 z5_1_ + T5_1_ + u5_1_ >= -80
 R456: - 100 z6_1_ + T6_1_ + u6_1_ >= -80
 R457: - 100 z7_1_ + T7_1_ + u7_1_ >= -80
 R458: - 100 z8_1_ + T8_1_ + u8_1_ >= -80
 R459: - 100 z9_1_ + T9_1_ + u9_1_ >= -80
 R460: - 100 z10_1_ + T10_1_ + u10_1_ >= -80
 R461: - 100 z11_1_ + T11_1_ + u11_1_ >= -80
 R462: - 100 z0_2_ + T0_2_ + u0_2_ >= -80
 R463: - 100 z1_2_ + T1_2_ + u1_2_ >= -80
 R464: - 100 z2_2_ + T2_2_ + u2_2_ >= -80
 R465: - 100 z3_2_ + T3_2_ + u3_2_ >= -80
 R466: - 100 z4_2_ + T4_2_ + u4_2_ >= -80
 R467: - 100 z5_2_ + T5_2_ + u5_2_ >= -80
 R468: - 100 z6_2_ + T6_2_ + u6_2_ >= -80
 R469: - 100 z7_2_ + T7_2_ + u7_2_ >= -80
 R470: - 100 z8_2_ + T8_2_ + u8_2_ >= -80
 R471: - 100 z9_2_ + T9_2_ + u9_2_ >= -80
 R472: - 100 z10_2_ + T10_2_ + u10_2_ >= -80
 R473: - 100 z11_2_ + T11_2_ + u11_2_ >= -80
 R474: - 100 z0_3_ + T0_3_ + u0_3_ >= -80
 R475: - 100 z1_3_ + T1_3_ + u1_3_ >= -80
 R476: - 100 z2_3_ + T2_3_ + u2_3_ >= -80
 R477: - 100 z3_3_ + T3_3_ + u3_3_ >= -80
 R478: - 100 z4_3_ + T4_3_ + u4_3_ >= -80
 R479: - 100 z5_3_ + T5_3_ + u5_3_ >= -80
 R480: - 100 z6_3_ + T6_3_ + u6_3_ >= -80
 R481: - 100 z7_3_ + T7_3_ + u7_3_ >= -80
 R482: - 100 z8_3_ + T8_3_ + u8_3_ >= -80
 R483: - 100 z9_3_ + T9_3_ + u9_3_ >= -80
 R484: - 100 z10_3_ + T10_3_ + u10_3_ >= -80
 R485: - 100 z11_3_ + T11_3_ + u11_3_ >= -80
 R486: - 100 z0_4_ + T0_4_ + u0_4_ >= -80
 R487: - 100 z1_4_ + T1_4_ + u1_4_ >= -80
 R488: - 100 z2_4_ + T2_4_ + u2_4_ >= -80
 R489: - 100 z3_4_ + T3_4_ + u3_4_ >= -80
 R490: - 100 z4_4_ + T4_4_ + u4_4_ >= -80
 R491: - 100 z5_4_ + T5_4_ + u5_4_ >= -80
 R492: - 100 z6_4_ + T6_4_ + u6_4_ >= -80
 R493: - 100 z7_4_ + T7_4_ + u7_4_ >= -80
 R494: - 100 z8_4_ + T8_4_ + u8_4_ >= -80
 R495: - 100 z9_4_ + T9_4_ + u9_4_ >= -80
 R496: - 100 z10_4_ + T10_4_ + u10_4_ >= -80
 R497: - 100 z11_4_ + T11_4_ + u11_4_ >= -80
 R498: - 100 z0_5_ + T0_5_ + u0_5_ >= -80
 R499: - 100 z1_5_ + T1_5_ + u1_5_ >= -80
 R500: - 100 z2_5_ + T2_5_ + u2_5_ >= -80
 R501: - 100 z3_5_ + T3_5_ + u3_5_ >= -80
 R502: - 100 z4_5_ + T4_5_ + u4_5_ >= -80
 R503: - 100 z5_5_ + T5_5_ + u5_5_ >= -80
 R504: - 100 z6_5_ + T6_5_ + u6_5_ >= -80
 R505: - 100 z7_5_ + T7_5_ + u7_5_ >= -80
 R506: - 100 z8_5_ + T8_5_ + u8_5_ >= -80
 R507: - 100 z9_5_ + T9_5_ + u9_5_ >= -80
 R508: - 100 z10_5_ + T10_5_ + u10_5_ >= -80
 R509: - 100 z11_5_ + T11_5_ + u11_5_ >= -80
 R510: - 100 z0_6_ + T0_6_ + u0_6_ >= -80
 R511: - 100 z1_6_ + T1_6_ + u1_6_ >= -80
 R512: - 100 z2_6_ + T2_6_ + u2_6_ >= -80
 R513: - 100 z3_6_ + T3_6_ + u3_6_ >= -80
 R514: - 100 z4_6_ + T4_6_ + u4_6_ >= -80
 R515: - 100 z5_6_ + T5_6_ + u5_6_ >= -80
 R516: - 100 z6_6_ + T6_6_ + u6_6_ >= -80
 R517: - 100 z7_6_ + T7_6_ + u7_6_ >= -80
 R518: - 100 z8_6_ + T8_6_ + u8_6_ >= -80
 R519: - 100 z9_6_ + T9_6_ + u9_6_ >= -80
 R520: - 100 z10_6_ + T10_6_ + u10_6_ >= -80
 R521: - 100 z11_6_ + T11_6_ + u11_6_ >= -80
 R522: - 100 z0_7_ + T0_7_ + u0_7_ >= -80
 R523: - 100 z1_7_ + T1_7_ + u1_7_ >= -80
 R524: - 100 z2_7_ + T2_7_ + u2_7_ >= -80
 R525: - 100 z3_7_ + T3_7_ + u3_7_ >= -80
 R526: - 100 z4_7_ + T4_7_ + u4_7_ >= -80
 R527: - 100 z5_7_ + T5_7_ + u5_7_ >= -80
 R528: - 100 z6_7_ + T6_7_ + u6_7_ >= -80
 R529: - 100 z7_7_ + T7_7_ + u7_7_ >= -80
 R530: - 100 z8_7_ + T8_7_ + u8_7_ >= -80
 R531: - 100 z9_7_ + T9_7_ + u9_7_ >= -80
 R532: - 100 z10_7_ + T10_7_ + u10_7_ >= -80
 R533: - 100 z11_7_ + T11_7_ + u11_7_ >= -80
 R534: - 100 z0_8_ + T0_8_ + u0_8_ >= -80
 R535: - 100 z1_8_ + T1_8_ + u1_8_ >= -80
 R536: - 100 z2_8_ + T2_8_ + u2_8_ >= -80
 R537: - 100 z3_8_ + T3_8_ + u3_8_ >= -80
 R538: - 100 z4_8_ + T4_8_ + u4_8_ >= -80
 R539: - 100 z5_8_ + T5_8_ + u5_8_ >= -80
 R540: - 100 z6_8_ + T6_8_ + u6_8_ >= -80
 R541: - 100 z7_8_ + T7_8_ + u7_8_ >= -80
 R542: - 100 z8_8_ + T8_8_ + u8_8_ >= -80
 R543: - 100 z9_8_ + T9_8_ + u9_8_ >= -80
 R544: - 100 z10_8_ + T10_8_ + u10_8_ >= -80
 R545: - 100 z11_8_ + T11_8_ + u11_8_ >= -80
 R546: - 100 z0_9_ + T0_9_ + u0_9_ >= -80
 R547: - 100 z1_9_ + T1_9_ + u1_9_ >= -80
 R548: - 100 z2_9_ + T2_9_ + u2_9_ >= -80
 R549: - 100 z3_9_ + T3_9_ + u3_9_ >= -80
 R550: - 100 z4_9_ + T4_9_ + u4_9_ >= -80
 R551: - 100 z5_9_ + T5_9_ + u5_9_ >= -80
 R552: - 100 z6_9_ + T6_9_ + u6_9_ >= -80
 R553: - 100 z7_9_ + T7_9_ + u7_9_ >= -80
 R554: - 100 z8_9_ + T8_9_ + u8_9_ >= -80
 R555: - 100 z9_9_ + T9_9_ + u9_9_ >= -80
 R556: - 100 z10_9_ + T10_9_ + u10_9_ >= -80
 R557: - 100 z11_9_ + T11_9_ + u11_9_ >= -80
 R558: T0_1_ = 15.98406159
 R559: T1_1_ = 15.92066124
 R560: T2_1_ = 16.59434456
 R561: T3_1_ = 20
 R562: T4_1_ = 18.02165382
 R563: T5_1_ = 16.91437345
 R564: T6_1_ = 20
 R565: T7_1_ = 20
 R566: T8_1_ = 15.98236073
 R567: T9_1_ = 16.76718872
 R568: T10_1_ = 20
 R569: T11_1_ = 20
 R570: 27 x0_0_ + 27 x0_1_ + 27 x0_2_ + 27 x0_3_ + 27 x0_4_ + 27 x0_5_
   + 21 x0_6_ + 6 x0_7_ + 6 x0_8_ + 6 x0_9_ + 9 x1_0_ + 9 x1_1_ + 9 x1_2_
   + 9 x1_3_ + 9 x1_4_ + 9 x1_5_ + 7 x1_6_ + 2 x1_7_ + 2 x1_8_ + 2 x1_9_
   + 34 x2_7_ + 34 x2_8_ + 34 x2_9_ + 9 x3_0_ + 9 x3_1_ + 9 x3_2_ + 9 x3_3_
   + 9 x3_4_ + 9 x3_5_ + 7 x3_6_ + 2 x3_7_ + 2 x3_8_ + 2 x3_9_ + 51 x4_7_
   + 51 x4_8_ + 51 x4_9_ + 9 x5_0_ + 9 x5_1_ + 9 x5_2_ + 9 x5_3_ + 9 x5_4_
   + 9 x5_5_ + 7 x5_6_ + 2 x5_7_ + 2 x5_8_ + 2 x5_9_ + 81 x6_0_ + 81 x6_1_
   + 81 x6_2_ + 81 x6_3_ + 81 x6_4_ + 81 x6_5_ + 63 x6_6_ + 18 x6_7_
   + 18 x6_8_ + 18 x6_9_ + 17 x7_7_ + 17 x7_8_ + 17 x7_9_ >= 237
Bounds
Binaries
 x0_0_ x0_1_ x0_2_ x0_3_ x0_4_ x0_5_ x0_6_ x0_7_ x0_8_ x0_9_ x0_n_ x1_0_
 x1_1_ x1_2_ x1_3_ x1_4_ x1_5_ x1_6_ x1_7_ x1_8_ x1_9_ x1_n_ x2_7_ x2_8_
 x2_9_ x2_n_ x3_0_ x3_1_ x3_2_ x3_3_ x3_4_ x3_5_ x3_6_ x3_7_ x3_8_ x3_9_
 x3_n_ x4_7_ x4_8_ x4_9_ x4_n_ x5_0_ x5_1_ x5_2_ x5_3_ x5_4_ x5_5_ x5_6_
 x5_7_ x5_8_ x5_9_ x5_n_ x6_0_ x6_1_ x6_2_ x6_3_ x6_4_ x6_5_ x6_6_ x6_7_
 x6_8_ x6_9_ x6_n_ x7_7_ x7_8_ x7_9_ x7_n_ z0_1_ z0_2_ z0_3_ z0_4_ z0_5_
 z0_6_ z0_7_ z0_8_ z0_9_ z1_1_ z1_2_ z1_3_ z1_4_ z1_5_ z1_6_ z1_7_ z1_8_
 z1_9_ z2_1_ z2_2_ z2_3_ z2_4_ z2_5_ z2_6_ z2_7_ z2_8_ z2_9_ z3_1_ z3_2_
 z3_3_ z3_4_ z3_5_ z3_6_ z3_7_ z3_8_ z3_9_ z4_1_ z4_2_ z4_3_ z4_4_ z4_5_
 z4_6_ z4_7_ z4_8_ z4_9_ z5_1_ z5_2_ z5_3_ z5_4_ z5_5_ z5_6_ z5_7_ z5_8_
 z5_9_ z6_1_ z6_2_ z6_3_ z6_4_ z6_5_ z6_6_ z6_7_ z6_8_ z6_9_ z7_1_ z7_2_
 z7_3_ z7_4_ z7_5_ z7_6_ z7_7_ z7_8_ z7_9_ z8_1_ z8_2_ z8_3_ z8_4_ z8_5_
 z8_6_ z8_7_ z8_8_ z8_9_ z9_1_ z9_2_ z9_3_ z9_4_ z9_5_ z9_6_ z9_7_ z9_8_
 z9_9_ z10_1_ z10_2_ z10_3_ z10_4_ z10_5_ z10_6_ z10_7_ z10_8_ z10_9_
 z11_1_ z11_2_ z11_3_ z11_4_ z11_5_ z11_6_ z11_7_ z11_8_ z11_9_
End
